NAME : n150w160.001.959.tour
COMMENT : Length = 959
COMMENT : Found by LKH [Keld Helsgaun] Tue May  2 05:48:48 2017
TYPE : TOUR
DIMENSION : 151
TOUR_SECTION
1
40
70
116
32
125
80
68
57
123
37
130
110
115
129
83
11
140
69
44
81
56
29
112
82
7
105
46
147
149
18
131
47
108
34
91
20
146
43
22
5
104
84
122
86
16
50
17
9
139
143
118
133
65
21
99
51
78
102
137
90
13
76
62
73
111
30
49
58
2
134
98
106
101
8
27
136
25
72
14
97
60
26
89
92
119
124
95
15
12
3
113
148
19
31
103
100
107
45
39
128
120
67
53
88
74
35
117
55
41
59
142
66
138
94
52
33
54
79
23
48
75
6
71
150
141
85
135
38
121
4
145
96
77
87
93
126
24
109
28
64
42
127
114
63
10
36
132
151
61
144
-1
EOF
